% demand
num_movements = 19;
loading_factor = [1950, 1800, 1050, 1800, 1550, 900, 1450, 1350, 1600, 950, 1200, 1750, 1900, 1550, 1100, 950, 1650, 1800, 950];
pickup_time = [0, 0, 0, 0, 0, 0, 1, 1, 1, 2, 2, 2, 2, 2, 3, 5, 5, 5, 5];
delivery_time = [2, 2, 2, 2, 1, 1, 2, 2, 6, 4, 3, 6, 3, 5, 4, 6, 6, 6, 6];

% transporter definition
total_capacity = 11000;
num_decks = 4;
capacity = [3000, 3000, 1000, 4000];

% ways out of decks
num_ways_out = 2;
paths_out = array3d(decks, ways_out, decks, [
% ways out of deck d1
2, 4, 0, 0, 3, 4, 0, 0, 

% ways out of deck d2
4, 0, 0, 0, 0, 0, 0, 0,	

% ways out of deck d3
4, 0, 0, 0, 0, 0, 0, 0,	

% ways out of deck d4
0, 0, 0, 0,	0, 0, 0, 0,	

]);

